[ti. 04. april 18:11:00 +0200 2023]  ./input/alternate_g_np/50-4-3.gcc
Set parameter Username
Academic license - for non-commercial use only - expires 2024-03-28
Set parameter TimeLimit to value 1800
Set parameter PreCrush to value 1
Set parameter LazyConstraints to value 1
Gurobi Optimizer version 10.0.1 build v10.0.1rc0 (linux64)

CPU model: AMD Ryzen 9 5950X 16-Core Processor, instruction set [SSE2|AVX|AVX2]
Thread count: 16 physical cores, 32 logical processors, using up to 32 threads

Optimize a model with 54 rows, 250 columns and 650 nonzeros
Model fingerprint: 0x97990e96
Variable types: 0 continuous, 250 integer (250 binary)
Coefficient statistics:
  Matrix range     [1e+00, 1e+00]
  Objective range  [2e+00, 1e+02]
  Bounds range     [1e+00, 1e+00]
  RHS range        [1e+00, 1e+00]
Presolve time: 0.00s
Presolved: 54 rows, 250 columns, 650 nonzeros
Variable types: 0 continuous, 250 integer (250 binary)

Root relaxation: objective 2.336000e+03, 4 iterations, 0.00 seconds (0.00 work units)

    Nodes    |    Current Node    |     Objective Bounds      |     Work
 Expl Unexpl |  Obj  Depth IntInf | Incumbent    BestBd   Gap | It/Node Time

     0     0 2336.00000    0    4          - 2336.00000      -     -    0s
     0     0 2336.00000    0    6          - 2336.00000      -     -    0s
     0     0 2336.00000    0    -          - 2336.00000      -     -    0s
     0     0 2336.00000    0   12          - 2336.00000      -     -    0s
     0     0 2336.00000    0    -          - 2336.00000      -     -    0s
     0     0 2336.00000    0    8          - 2336.00000      -     -    0s
     0     0 2336.00000    0    -          - 2336.00000      -     -    0s
     0     0 2336.00000    0    8          - 2336.00000      -     -    0s
     0     2 2336.00000    0    6          - 2336.00000      -     -    0s
*38968 22392              19     265.0000000 2336.00000   782%  14.5    4s
H39695 22829                     335.0000000 2336.00000   597%  14.8    4s
 42075 24606 2273.50000   26   13  335.00000 2336.00000   597%  15.8    5s
*43893 25827              25     419.0000000 2336.00000   458%  16.6    5s
H44537 26196                     456.0000000 2336.00000   412%  16.8    5s
H44955 22221                    2155.0000024 2336.00000  8.40%  17.0    5s
H44976 16498                    2239.0000043 2336.00000  4.33%  17.1    5s
H44979 13281                    2256.0000054 2336.00000  3.55%  17.1    5s

Cutting planes:
  User: 58
  Lazy constraints: 1719

Explored 71563 nodes (1929551 simplex iterations) in 8.63 seconds (5.84 work units)
Thread count was 32 (of 32 available processors)

Solution count 7: 2256 2239 2155 ... 265

Optimal solution found (tolerance 1.00e-04)
Best objective 2.256000005429e+03, best bound 2.256000005429e+03, gap 0.0000%

User-callback calls 146027, time in user-callback 1.55 sec
Minimal separator inequalities added: 53341
Indegree inequalities added: 0
WRONG SOLUTION
[ti. 04. april 18:11:08 +0200 2023]  done

